NAME : eil51.opt.tour
COMMENT : Optimal tour for eil51.tsp  (490.7098)
TYPE : TOUR
DIMENSION : 51
TOUR_SECTION
14
6
48
23
24
7
43
26
31
36
35
20
3
28
8
27
1
22
32
11
2
16
50
29
21
34
30
39
10
49
9
38
5
46
51
12
47
4
17
37
15
33
45
44
42
19
40
41
13
18
25
-1
EOF